NAME : eil101.tsp
COMMENT : Optimal tour for eil101.tsp
TYPE : TOUR
DIMENSION : 101
Total Length: 677.340062332981
TOUR_SECTION
1
69
27
101
13
95
94
6
89
52
18
8
46
45
83
60
5
84
17
86
38
14
44
16
61
91
100
37
98
85
93
99
96
59
92
97
87
42
43
15
57
2
41
22
75
23
67
25
55
39
56
74
72
73
21
4
54
24
29
78
34
35
71
65
66
32
90
63
10
62
19
11
64
49
36
47
48
82
7
88
31
70
30
20
51
9
81
33
79
3
77
68
80
12
26
40
58
53
28
76
50
-1
EOF
